c *********************************
c * Circuit generated by BenCGen
c *
c * Parity_47
c *
c * Ports with 1 gate(s): 1
c * Ports with 2 gate(s): 47
c * Total gates: 48
c *********************************
p cnf 95 189
1 50 0
-1 -50 0
1 -49 0
50 -49 0
-1 -50 49 0
1 2 -51 0
-1 2 51 0
1 -2 51 0
-1 -2 -51 0
3 4 -52 0
-3 4 52 0
3 -4 52 0
-3 -4 -52 0
5 6 -53 0
-5 6 53 0
5 -6 53 0
-5 -6 -53 0
7 8 -54 0
-7 8 54 0
7 -8 54 0
-7 -8 -54 0
9 10 -55 0
-9 10 55 0
9 -10 55 0
-9 -10 -55 0
11 12 -56 0
-11 12 56 0
11 -12 56 0
-11 -12 -56 0
13 14 -57 0
-13 14 57 0
13 -14 57 0
-13 -14 -57 0
15 16 -58 0
-15 16 58 0
15 -16 58 0
-15 -16 -58 0
17 18 -59 0
-17 18 59 0
17 -18 59 0
-17 -18 -59 0
19 20 -60 0
-19 20 60 0
19 -20 60 0
-19 -20 -60 0
21 22 -61 0
-21 22 61 0
21 -22 61 0
-21 -22 -61 0
23 24 -62 0
-23 24 62 0
23 -24 62 0
-23 -24 -62 0
25 26 -63 0
-25 26 63 0
25 -26 63 0
-25 -26 -63 0
27 28 -64 0
-27 28 64 0
27 -28 64 0
-27 -28 -64 0
29 30 -65 0
-29 30 65 0
29 -30 65 0
-29 -30 -65 0
31 32 -66 0
-31 32 66 0
31 -32 66 0
-31 -32 -66 0
33 34 -67 0
-33 34 67 0
33 -34 67 0
-33 -34 -67 0
35 36 -68 0
-35 36 68 0
35 -36 68 0
-35 -36 -68 0
37 38 -69 0
-37 38 69 0
37 -38 69 0
-37 -38 -69 0
39 40 -70 0
-39 40 70 0
39 -40 70 0
-39 -40 -70 0
41 42 -71 0
-41 42 71 0
41 -42 71 0
-41 -42 -71 0
43 44 -72 0
-43 44 72 0
43 -44 72 0
-43 -44 -72 0
45 46 -73 0
-45 46 73 0
45 -46 73 0
-45 -46 -73 0
51 52 -74 0
-51 52 74 0
51 -52 74 0
-51 -52 -74 0
53 54 -75 0
-53 54 75 0
53 -54 75 0
-53 -54 -75 0
55 56 -76 0
-55 56 76 0
55 -56 76 0
-55 -56 -76 0
57 58 -77 0
-57 58 77 0
57 -58 77 0
-57 -58 -77 0
59 60 -78 0
-59 60 78 0
59 -60 78 0
-59 -60 -78 0
61 62 -79 0
-61 62 79 0
61 -62 79 0
-61 -62 -79 0
63 64 -80 0
-63 64 80 0
63 -64 80 0
-63 -64 -80 0
65 66 -81 0
-65 66 81 0
65 -66 81 0
-65 -66 -81 0
67 68 -82 0
-67 68 82 0
67 -68 82 0
-67 -68 -82 0
69 70 -83 0
-69 70 83 0
69 -70 83 0
-69 -70 -83 0
71 72 -84 0
-71 72 84 0
71 -72 84 0
-71 -72 -84 0
73 47 -85 0
-73 47 85 0
73 -47 85 0
-73 -47 -85 0
74 75 -86 0
-74 75 86 0
74 -75 86 0
-74 -75 -86 0
76 77 -87 0
-76 77 87 0
76 -77 87 0
-76 -77 -87 0
78 79 -88 0
-78 79 88 0
78 -79 88 0
-78 -79 -88 0
80 81 -89 0
-80 81 89 0
80 -81 89 0
-80 -81 -89 0
82 83 -90 0
-82 83 90 0
82 -83 90 0
-82 -83 -90 0
84 85 -91 0
-84 85 91 0
84 -85 91 0
-84 -85 -91 0
86 87 -92 0
-86 87 92 0
86 -87 92 0
-86 -87 -92 0
88 89 -93 0
-88 89 93 0
88 -89 93 0
-88 -89 -93 0
90 91 -94 0
-90 91 94 0
90 -91 94 0
-90 -91 -94 0
92 93 -95 0
-92 93 95 0
92 -93 95 0
-92 -93 -95 0
95 94 -48 0
-95 94 48 0
95 -94 48 0
-95 -94 -48 0
